Optimal - objective value 9353.50000000
      7 C8                     1                   -0.5
     21 C22                    1                   -0.5
     28 C29                    1                   -0.5
     49 C50                    1                   -0.5
     62 C63                    1                   -0.5
     83 C84                    1                   -0.5
    154 C155                   1                   -0.5
    191 C192                   1                   -0.5
    210 C211                   1                   -0.5
    238 C239                   1                   -0.5
    251 C252                   1                   -0.5
    289 C290                   1                   -0.5
    304 C305                   1                   -0.5
    361 C362                   1                   -0.5
    389 C390                   1                   -0.5
    440 C441                   1                   -0.5
    468 C469                   1                   -0.5
    499 C500                   1                   -0.5
    560 C561                   1                   -0.5
    574 C575                   1                   -0.5
    602 C603                   1                   -0.5
    606 C607                   1                   -0.5
    616 C617                   1                   -0.5
    636 C637                   1                   -0.5
    662 C663                   1                   -0.5
    666 C667                   1                   -0.5
    670 C671                   1                   -0.5
    692 C693                   1                   -0.5
    697 C698                   1                   -0.5
    706 C707                   1                   -0.5
    726 C727                   1                   -0.5
    735 C736                   1                   -0.5
    745 C746                   1                   -0.5
    757 C758                   1                   -0.5
    763 C764                   1                   -0.5
    808 C809                   1                   -0.5
    835 C836                   1                   -0.5
    854 C855                   1                   -0.5
    870 C871                   1                   -0.5
    882 C883                   1                   -0.5
    964 C965                   1                   -0.5
    978 C979                   1                   -0.5
    981 C982                   1                   -0.5
    999 C1000                  1                   -0.5
   1027 C1028                  1                   -0.5
   1060 C1061                  1                   -0.5
   1076 C1077                  1                   -0.5
   1134 C1135                  1                   -0.5
   1162 C1163                  1                   -0.5
   1190 C1191                  1                   -0.5
   1269 C1270                  1                   -0.5
   1273 C1274                  1                   -0.5
   1297 C1298                  1                   -0.5
   1301 C1302                  1                   -0.5
   1382 C1383                  1                   -0.5
   1409 C1410                  1                   -0.5
   1456 C1457                  1                   -0.5
   1503 C1504                  1                   -0.5
   1534 C1535                  1                   -0.5
   1552 C1553                  1                   -0.5
   1608 C1609                  1                   -0.5
   1666 C1667                  1                   -0.5
   1696 C1697                  1                   -0.5
   1721 C1722                  1                   -0.5
   1787 C1788                  1                   -0.5
   1818 C1819                  1                   -0.5
   1861 C1862                  1                   -0.5
   1885 C1886                  1                   -0.5
   1916 C1917                  1                   -0.5
   1929 C1930                  1                   -0.5
   1944 C1945                  1                   -0.5
   1974 C1975                  1                   -0.5
   2002 C2003                  1                   -0.5
   2016 C2017                  1                   -0.5
   2058 C2059                  1                   -0.5
   2072 C2073                  1                   -0.5
   2086 C2087                  1                   -0.5
   2117 C2118                  1                   -0.5
   2128 C2129                  1                   -0.5
   2146 C2147                  1                   -0.5
   2156 C2157                  1                   -0.5
   2187 C2188                  1                   -0.5
   2199 C2200                  1                   -0.5
   2203 C2204                  1                   -0.5
   2281 C2282                  1                   -0.5
   2309 C2310                  1                   -0.5
   2334 C2335                  1                   -0.5
   2424 C2425                  1                   -0.5
   2439 C2440                  1                   -0.5
   2464 C2465                  1                   -0.5
   2478 C2479                  1                   -0.5
   2490 C2491                  1                   -0.5
   2525 C2526                  1                  10000
   2642 C2643                  1                   -0.5
   2661 C2662                  1                      0
   2665 C2666                  1                      0
   2671 C2672                  1                      0
   2674 C2675                  1                      0
   2679 C2680                  1                      0
   2688 C2689                  1                      0
   2690 C2691                  1                      0
   2693 C2694                  1                      0
   2698 C2699                  1                      0
   2699 C2700                  1                      0
   2700 C2701                  1                      0
   2701 C2702                  1                      0
   2702 C2703                  1                      0
   2707 C2708                  1                      0
   2714 C2715                  1                      0
   2724 C2725                  1                      0
   2725 C2726                  1                      0
   2728 C2729                  1                      0
   2729 C2730                  1                      0
   2730 C2731                  1                      0
   2736 C2737                  1                      0
   2737 C2738                  1                      0
   2739 C2740                  1                      0
   2741 C2742                  1                      0
   2742 C2743                  1                      0
   2744 C2745                  1                      0
   2746 C2747                  1                      0
   2747 C2748                  1                      0
   2751 C2752                  1                      0
   2756 C2757                  1                      0
   2758 C2759                  1                      0
   2762 C2763                  1                      0
   2765 C2766                  1                      0
   2766 C2767                  1                      0
   2768 C2769                  1                      0
   2769 C2770                  1                      0
   2770 C2771                  1                      0
   2771 C2772                  1                      0
   2772 C2773                  1                      0
   2775 C2776                  1                      0
   2776 C2777                  1                      0
   2779 C2780                  1                      0
   2781 C2782                  1                      0
   2782 C2783                  1                      0
   2786 C2787                  1                      0
   2787 C2788                  1                      0
   2792 C2793                  1                      0
   2793 C2794                  1                      0
   2795 C2796                  1                      0
   2797 C2798                  1                      0
   2798 C2799                  1                      0
   2814 C2815                  1                      0
   2842 C2843                  1                      0
   2856 C2857                  1                      0
   2870 C2871                  1                      0
   2884 C2885                  1                      0
   2890 C2891                  1                      0
   2912 C2913                  1                      0
   2918 C2919                  1                      0
   2921 C2922                  1                      0
   2926 C2927                  1                      0
   2946 C2947                  1                      0
   2949 C2950                  1                      0
   2950 C2951                  1                      0
   2953 C2954                  1                      0
   2954 C2955                  1                      0
   2956 C2957                  1                      0
   2957 C2958                  1                      0
   2964 C2965                  1                      0
   2966 C2967                  1                      0
   2968 C2969                  1                      0
   2969 C2970                  1                      0
   2972 C2973                  1                      0
   2973 C2974                  1                      0
   2976 C2977                  1                      0
   2977 C2978                  1                      0
   2980 C2981                  1                      0
   2981 C2982                  1                      0
   2982 C2983                  1                      0
   2984 C2985                  1                      0
   2986 C2987                  1                      0
   2992 C2993                  1                      0
   2996 C2997                  1                      0
   2999 C3000                  1                      0
   3002 C3003                  1                      0
   3007 C3008                  1                      0
   3008 C3009                  1                      0
   3009 C3010                  1                      0
   3017 C3018                  1                      0
   3019 C3020                  1                      0
   3031 C3032                  1                      0
   3034 C3035                  1                      0
   3038 C3039                  1                      0
   3059 C3060                  1                      0
   3072 C3073                  1                      0
   3089 C3090                  1                      0
   3150 C3151                  1                      0
   3156 C3157                  1                      0
   3160 C3161                  1                      0
   3161 C3162                  1                      0
   3164 C3165                  1                      0
   3176 C3177                  1                      0
   3178 C3179                  1                      0
   3182 C3183                  1                      0
   3183 C3184                  1                      0
   3186 C3187                  1                      0
   3189 C3190                  1                      0
   3190 C3191                  1                      0
   3192 C3193                  1                      0
   3194 C3195                  1                      0
   3196 C3197                  1                      0
   3201 C3202                  1                      0
   3204 C3205                  1                      0
   3206 C3207                  1                      0
   3209 C3210                  1                      0
   3212 C3213                  1                      0
   3214 C3215                  1                      0
   3217 C3218                  1                      0
   3218 C3219                  1                      0
   3220 C3221                  1                      0
   3226 C3227                  1                      0
   3233 C3234                  1                      0
   3234 C3235                  1                      0
   3237 C3238                  1                      0
   3240 C3241                  1                      0
   3246 C3247                  1                      0
   3248 C3249                  1                      0
   3255 C3256                  1                      0
   3257 C3258                  1                      0
   3262 C3263                  1                      0
   3265 C3266                  1                      0
   3266 C3267                  1                      0
   3268 C3269                  1                      0
   3272 C3273                  1                      0
   3276 C3277                  1                      0
   3277 C3278                  1                      0
   3283 C3284                  1                      0
   3288 C3289                  1                      0
   3290 C3291                  1                      0
   3291 C3292                  1                      0
   3295 C3296                  1                      0
   3296 C3297                  1                      0
   3297 C3298                  1                      0
   3300 C3301                  1                      0
   3302 C3303                  1                      0
   3304 C3305                  1                      0
   3306 C3307                  1                      0
   3307 C3308                  1                      0
   3309 C3310                  1                      0
   3310 C3311                  1                      0
   3311 C3312                  1                      0
   3314 C3315                  1                      0
   3316 C3317                  1                      0
   3318 C3319                  1                      0
   3322 C3323                  1                      0
   3323 C3324                  1                      0
   3325 C3326                  1                      0
   3326 C3327                  1                      0
   3327 C3328                  1                      0
   3329 C3330                  1                      0
   3330 C3331                  1                      0
   3331 C3332                  1                      0
   3332 C3333                  1                      0
   3334 C3335                  1                      0
   3335 C3336                  1                      0
   3336 C3337                  1                      0
   3337 C3338                  1                      0
   3338 C3339                  1                      0
   3339 C3340                  1                      0
   3342 C3343                  1                      0
   3344 C3345                  1                      0
   3346 C3347                  1                      0
   3347 C3348                  1                      0
   3349 C3350                  1                      0
   3352 C3353                  1                      0
   3353 C3354                  1                      0
   3354 C3355                  1                      0
   3357 C3358                  1                      0
   3358 C3359                  1                      0
   3359 C3360                  1                      0
   3360 C3361                  1                      0
   3361 C3362                  1                      0
   3362 C3363                  1                      0
   3363 C3364                  1                      0
   3364 C3365                  1                      0
   3366 C3367                  1                      0
   3367 C3368                  1                      0
   3368 C3369                  1                      0
   3369 C3370                  1                      0
   3370 C3371                  1                      0
   3371 C3372                  1                      0
   3374 C3375                  1                   -100
   3375 C3376                  1                      0
   3376 C3377                  1                      0
   3377 C3378                  1                      0
   3378 C3379                  1                      0
   3379 C3380                  1                      0
   3380 C3381                  1                      0
   3381 C3382                  1                      0
   3382 C3383                  1                      0
   3383 C3384                  1                      0
   3384 C3385                  1                      0
   3385 C3386                  1                      0
   3386 C3387                  1                      0
   3387 C3388                  1                      0
   3388 C3389                  1                      0
   3389 C3390                  1                   -100
   3393 C3394                  1                      0
   3399 C3400                  1                      0
   3402 C3403                  1                      0
   3405 C3406                  1                      0
   3408 C3409                  1                      0
   3409 C3410                  1                      0
   3414 C3415                  1                      0
   3415 C3416                  1                      0
   3416 C3417                  1                      0
   3417 C3418                  1                      0
   3421 C3422                  1                      0
   3422 C3423                  1                      0
   3423 C3424                  1                      0
   3425 C3426                  1                      0
   3426 C3427                  1                      0
   3427 C3428                  1                      0
   3428 C3429                  1                      0
   3429 C3430                  1                      0
   3431 C3432                  1                      0
   3432 C3433                  1                      0
   3433 C3434                  1                      0
   3434 C3435                  1                   -100
   3436 C3437                  1                      0
   3437 C3438                  1                      0
   3439 C3440                  1                      0
   3440 C3441                  1                      0
   3441 C3442                  1                      0
   3445 C3446                  1                      0
   3448 C3449                  1                      0
   3452 C3453                  1                      0
   3465 C3466                  1                      0
   3466 C3467                  1                      0
   3467 C3468                  1                      0
   3468 C3469                  1                      0
   3470 C3471                  1                      0
   3471 C3472                  1                      0
   3472 C3473                  1                      0
   3473 C3474                  1                      0
   3474 C3475                  1                      0
   3476 C3477                  1                      0
   3477 C3478                  1                      0
   3478 C3479                  1                      0
   3479 C3480                  1                   -100
   3480 C3481                  1                      0
   3481 C3482                  1                      0
   3482 C3483                  1                      0
   3483 C3484                  1                      0
   3484 C3485                  1                      0
   3485 C3486                  1                      0
   3486 C3487                  1                      0
   3487 C3488                  1                      0
   3488 C3489                  1                      0
   3489 C3490                  1                      0
   3490 C3491                  1                      0
   3491 C3492                  1                      0
   3492 C3493                  1                      0
   3493 C3494                  1                      0
   3494 C3495                  1                   -100
   3495 C3496                  1                      0
   3496 C3497                  1                      0
   3497 C3498                  1                      0
   3498 C3499                  1                      0
   3499 C3500                  1                      0
   3500 C3501                  1                      0
   3501 C3502                  1                      0
   3502 C3503                  1                      0
   3503 C3504                  1                      0
   3504 C3505                  1                      0
   3505 C3506                  1                      0
   3506 C3507                  1                      0
   3507 C3508                  1                      0
   3508 C3509                  1                      0
   3509 C3510                  1                   -100
   3510 C3511                  6                      0
